% demand
num_movements = 23;
loading_factor = [1100, 1200, 2000, 1050, 1150, 1550, 1000, 1350, 1850, 1900, 1600, 1700, 1700, 1600, 1450, 1400, 1450, 1600, 1650, 1800, 1400, 1650, 850];
pickup_time = [0, 0, 0, 0, 0, 0, 0, 0, 1, 1, 2, 2, 4, 5, 5, 5, 6, 7, 7, 7, 7, 9, 9];
delivery_time = [2, 1, 5, 1, 1, 5, 1, 1, 3, 3, 5, 3, 5, 10, 10, 6, 9, 9, 9, 10, 10, 10, 10];

% transporter definition
total_capacity = 11000;
num_decks = 4;
capacity = [3000, 3000, 1000, 4000];

% ways out of decks
num_ways_out = 2;
paths_out = array3d(decks, ways_out, decks, [
% ways out of deck d1
2, 4, 0, 0, 3, 4, 0, 0, 

% ways out of deck d2
4, 0, 0, 0, 0, 0, 0, 0,	

% ways out of deck d3
4, 0, 0, 0, 0, 0, 0, 0,	

% ways out of deck d4
0, 0, 0, 0,	0, 0, 0, 0,	

]);

